ObjectiveValue = 3975.3;
flow=[(1,6,2)(5,0,0)(5,1,0)(5,2,0)(5,6,22)(5,8,0)(5,10,0)(5,11,0)(6,0,1)(6,1,2)(6,2,4)(6,5,1)(6,11,45)(6,12,2)(9,5,2)(10,12,6)(11,5,2)(11,6,17)(11,8,3)(12,2,3)(12,5,3)(12,6,25)(12,7,6)(12,8,0)(12,9,0)(12,10,0)(12,11,0)];
